NAME : local_12
TYPE : ATSP
DIMENSION : 28
EDGE_WEIGHT_TYPE : EXPLICIT
EDGE_WEIGHT_FORMAT : FULL_MATRIX
EDGE_WEIGHT_SECTION
0 743 10000000 10000000 239 486 665 1038 805 10000000 10000000 10000000 10000000 10000000 10000000 10000000 10000000 10000000 838 10000000 10000000 880 673 1080 10000000 10000000 773 10000000 
0 0 10000000 743 507 956 10000000 10000000 782 807 10000000 10000000 10000000 478 10000000 10000000 976 10000000 920 10000000 450 354 744 10000000 10000000 10000000 998 498 
0 10000000 0 10000000 10000000 989 808 348 10000000 10000000 10000000 10000000 10000000 10000000 360 10000000 10000000 907 10000000 738 10000000 10000000 10000000 395 394 675 913 10000000 
0 743 10000000 0 870 10000000 10000000 10000000 10000000 516 10000000 10000000 10000000 677 10000000 10000000 10000000 10000000 10000000 10000000 862 404 10000000 10000000 10000000 884 10000000 10000000 
0 507 10000000 870 0 605 764 10000000 754 10000000 10000000 10000000 10000000 949 10000000 10000000 10000000 10000000 814 10000000 957 657 640 1162 10000000 10000000 787 950 
0 984 996 10000000 605 0 208 728 620 10000000 10000000 10000000 10000000 10000000 10000000 10000000 10000000 10000000 543 10000000 10000000 10000000 513 682 943 10000000 390 10000000 
0 10000000 808 10000000 764 208 0 571 699 10000000 10000000 10000000 10000000 10000000 10000000 10000000 10000000 10000000 566 10000000 10000000 10000000 622 530 819 10000000 365 10000000 
0 10000000 348 10000000 10000000 728 571 0 10000000 10000000 10000000 10000000 10000000 10000000 539 10000000 10000000 10000000 984 10000000 10000000 10000000 10000000 380 597 10000000 793 10000000 
0 782 10000000 10000000 754 620 699 10000000 0 10000000 10000000 515 10000000 10000000 10000000 10000000 957 10000000 199 10000000 10000000 10000000 136 868 1066 10000000 383 855 
0 807 10000000 516 10000000 10000000 10000000 10000000 10000000 0 10000000 10000000 10000000 451 10000000 10000000 10000000 10000000 10000000 1083 652 532 10000000 10000000 10000000 632 10000000 989 
0 10000000 10000000 10000000 10000000 10000000 10000000 10000000 10000000 10000000 0 637 949 10000000 10000000 180 718 10000000 10000000 10000000 10000000 10000000 10000000 10000000 10000000 10000000 10000000 10000000 
0 10000000 10000000 10000000 10000000 10000000 10000000 10000000 515 10000000 637 0 1065 10000000 10000000 721 706 1053 579 10000000 10000000 10000000 650 10000000 10000000 10000000 780 858 
0 10000000 10000000 10000000 10000000 10000000 10000000 10000000 10000000 10000000 949 1033 0 10000000 10000000 823 10000000 196 10000000 385 10000000 10000000 10000000 959 716 838 10000000 10000000 
0 478 10000000 677 949 10000000 10000000 10000000 10000000 451 10000000 10000000 10000000 0 10000000 10000000 10000000 10000000 10000000 10000000 211 378 10000000 10000000 10000000 985 10000000 554 
0 10000000 360 10000000 10000000 10000000 10000000 539 10000000 10000000 10000000 10000000 10000000 10000000 0 10000000 10000000 10000000 10000000 10000000 10000000 10000000 10000000 742 735 767 10000000 10000000 
0 10000000 10000000 10000000 10000000 10000000 10000000 10000000 10000000 10000000 180 721 823 10000000 10000000 0 818 938 10000000 10000000 10000000 10000000 10000000 10000000 10000000 10000000 10000000 10000000 
0 976 10000000 10000000 10000000 10000000 10000000 10000000 957 10000000 718 671 10000000 10000000 10000000 818 0 10000000 10000000 10000000 817 10000000 10000000 10000000 10000000 10000000 10000000 514 
0 10000000 907 10000000 10000000 10000000 10000000 10000000 10000000 10000000 10000000 1017 196 10000000 10000000 938 10000000 0 937 258 10000000 10000000 10000000 763 524 747 960 10000000 
0 899 10000000 10000000 814 543 566 984 199 10000000 10000000 579 10000000 10000000 10000000 10000000 10000000 937 0 10000000 10000000 10000000 247 706 848 10000000 211 987 
0 10000000 738 10000000 10000000 10000000 10000000 10000000 10000000 1085 10000000 10000000 385 10000000 10000000 10000000 10000000 258 10000000 0 10000000 10000000 10000000 707 412 496 10000000 10000000 
0 450 10000000 862 957 10000000 10000000 10000000 10000000 652 10000000 10000000 10000000 211 10000000 10000000 817 10000000 10000000 10000000 0 507 10000000 10000000 10000000 10000000 10000000 352 
0 354 10000000 404 657 10000000 10000000 10000000 10000000 532 10000000 10000000 10000000 378 10000000 10000000 10000000 10000000 10000000 10000000 507 0 10000000 10000000 10000000 956 10000000 743 
0 744 10000000 10000000 640 513 622 10000000 136 10000000 10000000 650 10000000 10000000 10000000 10000000 10000000 10000000 247 10000000 10000000 10000000 0 855 1082 10000000 364 890 
0 10000000 395 10000000 1054 682 530 380 868 10000000 10000000 10000000 959 10000000 742 10000000 10000000 763 706 707 10000000 10000000 855 0 309 873 554 10000000 
0 10000000 394 10000000 10000000 943 819 597 1049 10000000 10000000 10000000 716 10000000 735 10000000 10000000 524 848 412 10000000 10000000 1072 309 0 615 757 10000000 
0 10000000 675 884 10000000 10000000 10000000 10000000 10000000 632 10000000 10000000 838 931 767 10000000 10000000 747 10000000 496 10000000 932 10000000 873 615 0 10000000 10000000 
0 996 913 10000000 787 390 365 793 383 10000000 10000000 780 10000000 10000000 10000000 10000000 10000000 960 211 10000000 10000000 10000000 364 554 757 10000000 0 10000000 
0 10000000 10000000 10000000 10000000 10000000 10000000 10000000 10000000 10000000 10000000 10000000 10000000 10000000 10000000 10000000 10000000 10000000 10000000 10000000 10000000 10000000 10000000 10000000 10000000 10000000 10000000 0 
EOF